s td 386 2 460
b 1 1
b 2 2 357
b 3 357 358
b 4 3 227
b 5 3 255
b 6 255 256
b 7 4
b 8 5 329
b 9 6 181
b 10 181 182
b 11 7
b 12 8 447
b 13 9
b 14 10
b 15 11 161
b 16 11 456
b 17 12
b 18 13 340
b 19 14 131
b 20 14 248
b 21 15
b 22 221 222
b 23 16 221
b 24 16 347
b 25 347 348
b 26 17
b 27 18 116
b 28 19
b 29 20
b 30 21 137
b 31 21 332
b 32 22 118
b 33 23
b 34 24 128
b 35 25 322
b 36 25 239
b 37 239 240
b 38 26 240
b 39 26 349
b 40 349 350
b 41 27 233
b 42 28
b 43 29
b 44 30 136
b 45 30 197
b 46 31 271
b 47 271 272
b 48 32 265
b 49 193 194
b 50 42 193
b 51 265 266
b 52 42 266
b 53 42 360
b 54 33
b 55 34 333
b 56 35 425
b 57 36 426
b 58 425 426
b 59 426
b 60 37
b 61 38
b 62 39 111
b 63 39 224
b 64 40 157
b 65 40 198
b 66 41 278
b 67 43
b 68 44 334
b 69 45 210
b 70 209 210
b 71 210
b 72 46 442
b 73 441 442
b 74 442
b 75 183 184
b 76 47 184
b 77 47 259
b 78 48 291
b 79 49 102
b 80 49 147
b 81 50 158
b 82 51
b 83 52 444
b 84 53 175
b 85 54
b 86 55
b 87 56 167
b 88 56 436
b 89 435 436
b 90 436
b 91 57 352
b 92 57 367
b 93 58
b 94 59 371
b 95 60 204
b 96 60 354
b 97 61 297
b 98 61 356
b 99 62 318
b 100 317 318
b 101 318
b 102 63
b 103 64 149
b 104 64 212
b 105 64 396
b 106 395 396
b 107 396
b 108 65 205
b 109 65 386
b 110 385 386
b 111 386
b 112 66 245
b 113 67 267
b 114 67 336
b 115 335 336
b 116 336
b 117 69 286
b 118 285 286
b 119 68 285
b 120 68 326
b 121 68 434
b 122 70 200
b 123 70 405
b 124 71
b 125 72 409
b 126 409 410
b 127 73 104
b 128 165 166
b 129 73 165
b 130 73 201
b 131 74 287
b 132 287 288
b 133 75 261
b 134 76 130
b 135 76 254
b 136 253 254
b 137 254
b 138 78 214
b 139 213 214
b 140 77 213
b 141 77 268
b 142 145 146
b 143 79 145
b 144 79 408
b 145 407 408
b 146 408
b 147 80
b 148 81 327
b 149 327 328
b 150 82
b 151 83 281
b 152 83 445
b 153 445 446
b 154 121 122
b 155 84 122
b 156 84 125
b 157 125 126
b 158 94 126
b 159 94 185
b 160 85 303
b 161 303 304
b 162 86 304
b 163 86 379
b 164 379 380
b 165 87 208
b 166 87 345
b 167 87 412
b 168 88 264
b 169 88 414
b 170 89 293
b 171 89 416
b 172 415 416
b 173 416
b 174 90 178
b 175 90 423
b 176 100 362
b 177 100 424
b 178 423 424
b 179 424
b 180 91
b 181 92 308
b 182 93 290
b 183 289 290
b 184 290
b 185 95 151
b 186 95 422
b 187 96 143
b 188 98 196
b 189 143 144
b 190 97 144
b 191 195 196
b 192 97 195
b 193 97 346
b 194 99 418
b 195 417 418
b 196 418
b 197 101
b 198 103
b 199 105
b 200 106
b 201 107
b 202 108
b 203 109
b 204 110
b 205 112
b 206 113
b 207 114
b 208 115
b 209 117
b 210 119 120
b 211 123
b 212 124
b 213 127
b 214 129
b 215 132
b 216 133
b 217 134
b 218 135
b 219 138
b 220 139 140
b 221 141
b 222 142
b 223 148
b 224 150
b 225 152
b 226 153 154
b 227 155 156
b 228 159 160
b 229 162
b 230 163
b 231 164
b 232 168
b 233 169
b 234 170
b 235 171
b 236 172
b 237 173 174
b 238 176
b 239 177
b 240 179
b 241 180
b 242 186
b 243 187
b 244 188
b 245 189 190
b 246 191 192
b 247 199
b 248 202
b 249 203
b 250 206
b 251 207
b 252 211
b 253 215
b 254 216
b 255 217 218
b 256 219 220
b 257 223
b 258 225
b 259 226
b 260 228
b 261 229
b 262 230
b 263 231
b 264 232
b 265 234
b 266 235
b 267 236
b 268 237
b 269 238
b 270 241
b 271 242
b 272 243
b 273 244
b 274 246
b 275 247
b 276 249
b 277 250
b 278 251 252
b 279 257
b 280 258
b 281 260
b 282 262
b 283 263
b 284 269 270
b 285 273
b 286 274
b 287 275
b 288 276
b 289 277
b 290 279
b 291 280
b 292 282
b 293 283
b 294 284
b 295 292
b 296 294
b 297 295 296
b 298 298
b 299 299
b 300 300
b 301 301
b 302 302
b 303 305 306
b 304 307
b 305 309 310
b 306 311
b 307 312
b 308 313
b 309 314
b 310 315
b 311 316
b 312 319
b 313 320
b 314 321
b 315 323
b 316 324
b 317 325
b 318 330
b 319 331
b 320 337
b 321 338
b 322 339
b 323 341 342
b 324 343
b 325 344
b 326 351
b 327 353
b 328 355
b 329 359
b 330 361
b 331 363
b 332 364
b 333 365
b 334 366
b 335 368
b 336 369
b 337 370
b 338 372
b 339 373 374
b 340 375
b 341 376
b 342 377
b 343 378
b 344 381
b 345 382
b 346 383 384
b 347 387
b 348 388
b 349 389
b 350 390
b 351 391
b 352 392
b 353 393
b 354 394
b 355 397 398
b 356 399
b 357 400
b 358 401 402
b 359 403
b 360 404
b 361 406
b 362 411
b 363 413
b 364 419 420
b 365 421
b 366 427
b 367 428
b 368 429 430
b 369 431
b 370 432
b 371 433
b 372 437
b 373 438
b 374 439
b 375 440
b 376 443
b 377 448
b 378 449
b 379 450
b 380 451
b 381 452
b 382 453 454
b 383 455
b 384 457
b 385 458
b 386 459 460
1 2
1 4
1 7
1 8
1 9
1 11
1 12
1 13
1 14
1 15
1 17
1 18
1 19
1 21
1 22
1 26
1 27
1 28
1 29
1 30
1 32
1 33
1 34
1 35
1 41
1 42
1 43
1 44
1 46
1 48
1 54
1 55
1 56
1 60
1 61
1 62
1 64
1 66
1 67
1 68
1 69
1 72
1 75
1 78
1 79
1 81
1 82
1 83
1 84
1 85
1 86
1 87
1 91
1 93
1 94
1 95
1 97
1 99
1 102
1 103
1 108
1 112
1 113
1 117
1 122
1 124
1 125
1 127
1 131
1 133
1 134
1 138
1 142
1 147
1 148
1 150
1 151
1 154
1 160
1 165
1 168
1 170
1 174
1 180
1 181
1 182
1 185
1 187
1 194
1 197
1 198
1 199
1 200
1 201
1 202
1 203
1 204
1 205
1 206
1 207
1 208
1 209
1 210
1 211
1 212
1 213
1 214
1 215
1 216
1 217
1 218
1 219
1 220
1 221
1 222
1 223
1 224
1 225
1 226
1 227
1 228
1 229
1 230
1 231
1 232
1 233
1 234
1 235
1 236
1 237
1 238
1 239
1 240
1 241
1 242
1 243
1 244
1 245
1 246
1 247
1 248
1 249
1 250
1 251
1 252
1 253
1 254
1 255
1 256
1 257
1 258
1 259
1 260
1 261
1 262
1 263
1 264
1 265
1 266
1 267
1 268
1 269
1 270
1 271
1 272
1 273
1 274
1 275
1 276
1 277
1 278
1 279
1 280
1 281
1 282
1 283
1 284
1 285
1 286
1 287
1 288
1 289
1 290
1 291
1 292
1 293
1 294
1 295
1 296
1 297
1 298
1 299
1 300
1 301
1 302
1 303
1 304
1 305
1 306
1 307
1 308
1 309
1 310
1 311
1 312
1 313
1 314
1 315
1 316
1 317
1 318
1 319
1 320
1 321
1 322
1 323
1 324
1 325
1 326
1 327
1 328
1 329
1 330
1 331
1 332
1 333
1 334
1 335
1 336
1 337
1 338
1 339
1 340
1 341
1 342
1 343
1 344
1 345
1 346
1 347
1 348
1 349
1 350
1 351
1 352
1 353
1 354
1 355
1 356
1 357
1 358
1 359
1 360
1 361
1 362
1 363
1 364
1 365
1 366
1 367
1 368
1 369
1 370
1 371
1 372
1 373
1 374
1 375
1 376
1 377
1 378
1 379
1 380
1 381
1 382
1 383
1 384
1 385
1 386
2 3
4 5
5 6
9 10
15 16
19 20
22 23
23 24
24 25
30 31
35 36
36 37
37 38
38 39
39 40
44 45
46 47
48 51
49 50
50 53
51 52
52 53
56 58
57 59
58 59
62 63
64 65
69 71
70 71
72 74
73 74
75 76
76 77
79 80
87 88
88 90
89 90
91 92
95 96
97 98
99 101
100 101
103 105
104 105
105 107
106 107
108 109
109 111
110 111
113 114
114 116
115 116
117 118
118 119
119 121
120 121
122 123
125 126
127 130
128 129
129 130
131 132
134 135
135 137
136 137
138 139
139 140
140 141
142 143
143 144
144 146
145 146
148 149
151 152
152 153
154 155
155 156
156 157
157 158
158 159
160 161
161 162
162 163
163 164
165 167
166 167
168 169
170 171
171 173
172 173
174 175
175 178
176 177
177 179
178 179
182 184
183 184
185 186
187 189
188 191
189 190
190 193
191 192
192 193
194 196
195 196
